20 965
525 7 479 7 356 7 107 9 6 11 781 15 614 22
525 7 479 7 356 7 107 9 6 11 781 15 614 22
525 7 479 7 356 7 107 9 6 11 781 15 614 22
520 7 444 7 352 7 190 9 19 11 841 15 712 23
520 7 444 7 352 7 190 9 19 11 841 15 712 23
525 7 482 7 358 7 165 12
525 7 479 7 355 7 106 9 927 13
525 7 479 7 355 7 106 9 927 13
525 7 479 7 355 7 106 9 927 13
525 7 479 7 355 7 106 9 927 13
525 7 479 7 355 7 106 9 931 13
525 7 482 7 365 7 115 9 943 13
525 7 482 7 358 7 165 12
525 7 482 7 358 7 165 12
533 7
533 7
533 7
533 7
533 7
533 7
